\* Problem: Unknown *\

Maximize
 obj: + xp_0_0 + xp_0_1 + xp_0_2 + xp_0_3 + xp_0_4 + xp_0_5 + xp_0_6
 + xp_0_7 + xp_1_0 + xp_1_1 + xp_2_0 + xp_2_1 + xp_2_2 + xp_2_3 + xp_2_4
 + xp_3_0 + xp_3_1 + xp_3_2 + xp_4_0 + xp_4_1 + xp_5_0 + xp_5_1 + xp_6_0
 + xp_6_1 + xp_6_2 + xp_6_3 + xp_7_0 + xp_7_1 + xp_8_0 + xp_8_1 + xp_9_0
 + xp_10_0 + xp_10_1 + xp_11_0 + xp_11_1 + xp_11_2 + xp_11_3 + xp_12_0
 + xp_13_0 + xp_13_1 + xp_14_0 + xp_14_1 + xp_15_0 + xp_16_0 + xp_16_1
 + xp_17_0 + xp_17_1 + xp_17_2 + xp_17_3 + xp_18_0 + xp_18_1 + xp_18_2
 + xp_18_3 + xp_18_4 + xp_18_5 + xp_19_0 + xp_19_1 + xp_19_2 + xp_19_3
 + xp_19_4 + xp_19_5 + xp_19_6 + xp_20_0 + xp_20_1 + xp_20_2 + xp_20_3
 + xp_21_0 + xp_21_1 + xp_21_2 + xp_21_3 + xp_21_4 + xp_22_0 + xp_22_1
 + xp_22_2 + xp_22_3 + xp_22_4 + xp_22_5 + xp_22_6 + xp_23_0 + xp_23_1
 + xp_23_2 + xp_23_3 + xp_23_4

Subject To
 r_1: 0 xp_0_0 <= 28.8106343283582
 r_2: + xp_22_3 + xp_18_1 + xp_2_2 <= 28.6290322580645
 r_3: + xp_23_4 + xp_21_4 + xp_19_6 + xp_18_5 + xp_18_3 + xp_6_2 <= 30
 r_4: + xp_18_2 + xp_15_0 <= 30
 r_5: + xp_18_0 <= 27.6720505617978
 r_6: + xp_19_3 + xp_18_4 <= 29.7154017857143
 r_7: + xp_20_3 <= 28.8106343283582
 r_8: + xp_22_2 + xp_11_3 + xp_6_1 + xp_5_1 + xp_3_2 + xp_2_1
 <= 28.6290322580645
 r_9: + xp_11_1 + xp_6_3 + xp_3_1 <= 29.7154017857143
 r_10: + xp_17_2 + xp_3_0 <= 29.7154017857143
 r_11: + xp_18_5 + xp_18_4 + xp_11_2 <= 27.6720505617978
 r_12: + xp_11_0 <= 29.7154017857143
 r_13: 0 xp_0_0 <= 29.7154017857143
 r_14: + xp_21_3 + xp_19_5 + xp_14_0 + xp_0_5 + xp_0_1
 <= 28.6290322580645
 r_15: + xp_21_0 <= 28.8106343283582
 r_16: + xp_22_1 + xp_21_2 + xp_19_4 + xp_0_6 + xp_0_3 + xp_0_2
 <= 28.8106343283582
 r_17: + xp_0_0 <= 27.6720505617978
 r_18: + xp_21_4 + xp_19_6 + xp_19_3 + xp_4_0 <= 28.8106343283582
 r_19: + xp_19_0 <= 28.8106343283582
 r_20: + xp_21_1 + xp_19_2 + xp_19_1 + xp_14_1 + xp_4_1 + xp_0_7
 + xp_0_4 <= 28.8106343283582
 r_21: + xp_20_1 <= 28.6290322580645
 r_22: + xp_21_3 + xp_7_1 <= 28.6290322580645
 r_23: + xp_22_6 + xp_22_3 + xp_22_2 <= 28.6290322580645
 r_24: + xp_23_2 + xp_6_1 + xp_3_2 + xp_0_5 + xp_0_4 <= 28.6290322580645
 r_25: 0 xp_0_0 <= 28.6290322580645
 r_26: + xp_18_1 + xp_0_7 + xp_0_1 <= 27.6720505617978
 r_27: + xp_11_3 + xp_4_1 <= 28.6290322580645
 r_28: + xp_19_5 + xp_19_1 + xp_10_1 <= 28.6290322580645
 r_29: + xp_20_2 <= 28.8106343283582
 r_30: + xp_2_0 <= 28.6290322580645
 r_31: + xp_23_4 + xp_18_3 + xp_6_3 + xp_6_2 + xp_3_1 + xp_2_4 <= 30
 r_32: + xp_2_3 <= 30
 r_33: + xp_11_1 + xp_2_2 <= 30
 r_34: + xp_19_6 + xp_18_5 + xp_2_1 <= 29.7154017857143
 r_35: 0 xp_0_0 <= 28.8106343283582
 r_36: + xp_9_0 <= 28.6290322580645
 r_37: + xp_21_2 + xp_13_1 + xp_8_1 + xp_0_3 <= 30
 r_38: + xp_23_3 + xp_1_1 <= 30
 r_39: + xp_19_4 + xp_17_1 + xp_0_6 <= 30
 r_40: + xp_0_2 <= 27.6720505617978
 r_41: + xp_12_0 + xp_2_4 <= 28.6290322580645
 r_42: + xp_21_2 <= 30
 r_43: + xp_22_4 + xp_16_0 <= 30
 r_44: + xp_23_4 + xp_23_2 + xp_23_1 + xp_16_1 <= 30
 r_45: + xp_3_2 + xp_3_1 <= 30
 r_46: + xp_18_3 + xp_0_5 + xp_0_4 + xp_0_3 <= 27.6720505617978
 r_47: + xp_22_5 + xp_16_1 + xp_13_1 <= 30
 r_48: + xp_13_0 <= 30
 r_49: + xp_17_3 <= 30
 r_50: 0 xp_0_0 <= 27.6720505617978
 r_51: + xp_8_1 + xp_1_1 <= 30
 r_52: + xp_8_0 <= 30
 r_53: + xp_1_0 <= 30
 r_54: + xp_18_2 + xp_0_6 <= 27.6720505617978
 r_55: 0 xp_0_0 <= 30
 r_56: + xp_19_4 <= 29.7154017857143
 r_57: + xp_22_1 <= 27.6720505617978
 r_58: + xp_23_2 + xp_22_6 + xp_5_0 <= 27.6720505617978
 r_59: + xp_23_3 + xp_22_0 + xp_17_1 <= 27.6720505617978
 r_60: + xp_23_1 + xp_22_4 + xp_6_0 <= 27.6720505617978
 r_61: + xp_23_0 + xp_22_5 + xp_17_3 <= 27.6720505617978
 r_62: + xp_17_0 <= 27.6720505617978
 r_63: + xp_23_4 + xp_22_3 + xp_11_2 + xp_6_2 <= 27.6720505617978
 r_64: + xp_22_2 + xp_17_2 + xp_6_3 + xp_6_1 + xp_5_1
 <= 27.6720505617978
 r_65: + xp_20_1 + xp_19_1 + xp_14_1 + xp_10_1 + xp_7_1 + xp_4_1
 + xp_2_3 + xp_0_7 + xp_0_4 <= 28.6290322580645
 r_66: + xp_21_1 + xp_20_2 + xp_7_0 <= 30
 r_67: + xp_20_3 + xp_19_2 + xp_10_0 <= 29.7154017857143
 r_68: + xp_20_0 <= 28.8106343283582

Bounds
 0 <= xp_0_0 <= 28.0114506282956
 0 <= xp_0_1 <= 9.70771841856758
 0 <= xp_0_2 <= 15.9716760289292
 0 <= xp_0_3 <= 3.00994364984162
 0 <= xp_0_4 <= 0.921957779721087
 0 <= xp_0_5 <= 3.00994364984162
 0 <= xp_0_6 <= 0.921957779721087
 0 <= xp_0_7 <= 0.921957779721087
 0 <= xp_1_0 <= 21.5667278420992
 0 <= xp_1_1 <= 13.4136633783367
 0 <= xp_2_0 <= 22.7146721910504
 0 <= xp_2_1 <= 2.46759996323856
 0 <= xp_2_2 <= 6.84242062076275
 0 <= xp_2_3 <= 0.822533321079518
 0 <= xp_2_4 <= 1.64506664215904
 0 <= xp_3_0 <= 23.2750755395525
 0 <= xp_3_1 <= 7.12262229501381
 0 <= xp_3_2 <= 1.65410249299586
 0 <= xp_4_0 <= 23.1394835980144
 0 <= xp_4_1 <= 2.8924354497518
 0 <= xp_5_0 <= 23.1394835980144
 0 <= xp_5_1 <= 2.8924354497518
 0 <= xp_6_0 <= 13.0159595238831
 0 <= xp_6_1 <= 2.60319190477662
 0 <= xp_6_2 <= 2.60319190477662
 0 <= xp_6_3 <= 5.20638380955324
 0 <= xp_7_0 <= 17.4630790278765
 0 <= xp_7_1 <= 4.98945115082186
 0 <= xp_8_0 <= 17.9330997884612
 0 <= xp_8_1 <= 2.24163747355765
 0 <= xp_9_0 <= 18.710441815582
 0 <= xp_10_0 <= 16.6315038360728
 0 <= xp_10_1 <= 2.07893797950911
 0 <= xp_11_0 <= 27.0894928485746
 0 <= xp_11_1 <= 11.2714443435333
 0 <= xp_11_2 <= 8.26150069369168
 0 <= xp_11_3 <= 12.6001779478686
 0 <= xp_12_0 <= 17.5715453572422
 0 <= xp_13_0 <= 13.2871253472973
 0 <= xp_13_1 <= 3.79632152779924
 0 <= xp_14_0 <= 10.8466329365693
 0 <= xp_14_1 <= 5.42331646828463
 0 <= xp_15_0 <= 16.1072499108053
 0 <= xp_16_0 <= 13.739068386321
 0 <= xp_16_1 <= 1.71738354829013
 0 <= xp_17_0 <= 28.1108750869372
 0 <= xp_17_1 <= 10.0783147205107
 0 <= xp_17_2 <= 2.01566294410214
 0 <= xp_17_3 <= 5.02560659394375
 0 <= xp_18_0 <= 23.455852755162
 0 <= xp_18_1 <= 1.79873028537075
 0 <= xp_18_2 <= 4.80867393521237
 0 <= xp_18_3 <= 1.79873028537075
 0 <= xp_18_4 <= 9.61734787042474
 0 <= xp_18_5 <= 1.79873028537075
 0 <= xp_19_0 <= 28.8339899692625
 0 <= xp_19_1 <= 1.7444971206879
 0 <= xp_19_2 <= 5.23349136206371
 0 <= xp_19_3 <= 1.7444971206879
 0 <= xp_19_4 <= 1.7444971206879
 0 <= xp_19_5 <= 1.7444971206879
 0 <= xp_19_6 <= 1.7444971206879
 0 <= xp_20_0 <= 27.3877662244993
 0 <= xp_20_1 <= 6.31816067560794
 0 <= xp_20_2 <= 4.96232553864948
 0 <= xp_20_3 <= 3.30821702576632
 0 <= xp_21_0 <= 30
 0 <= xp_21_1 <= 2.91050715142545
 0 <= xp_21_2 <= 2.91050715142545
 0 <= xp_21_3 <= 2.91050715142545
 0 <= xp_21_4 <= 1.45525357571272
 0 <= xp_22_0 <= 15.8632036796762
 0 <= xp_22_1 <= 3.00994364984162
 0 <= xp_22_2 <= 2.54895272020647
 0 <= xp_22_3 <= 12.0397745993665
 0 <= xp_22_4 <= 1.27447636010324
 0 <= xp_22_5 <= 2.54895272020647
 0 <= xp_22_6 <= 1.27447636010324
 0 <= xp_23_0 <= 21.4221000497243
 0 <= xp_23_1 <= 11.5787836697313
 0 <= xp_23_2 <= 3.00994364984162
 0 <= xp_23_3 <= 1.27447636010324
 0 <= xp_23_4 <= 1.27447636010324

End
